! Test molecule input | Eqlbm Geometry search
 $CONTRL COORD=UNIQUE $END
 $CONTRL SCFTYP=RHF RUNTYP=OPTIMIZE DFTTYP=B3LYP ICHARG=0 MULT=1 $END
 $BASIS  NGAUSS=6 GBASIS=N31 NDFUNC=1 $END
 $PCM    SOLVNT=WATER SMD=.TRUE. $END
 $SYSTEM MWORDS=50 MEMDDI=1000 $END
 $GUESS  GUESS=HUCKEL $END
 $CONTRL SCFTYP=ROHF RUNTYP=OPTIMIZE DFTTYP=B3LYP ICHARG=1 MULT=1 $END
 $STATPT OPTTOL=0.0001 NSTEP=50 $END

 $DATA 
Title
C1
C     6.0    -0.90521    -1.04391     0.49447
H     1.0    -0.09503    -0.73201    -0.17014
N     7.0    -1.78474     0.09689     0.76129
H     1.0    -0.48579    -1.40621     1.43644
H     1.0    -1.47916    -1.84445     0.01964
C     6.0    -2.51346     0.72759    -0.18805
H     1.0    -1.84566     0.42270     1.71411
O     8.0    -2.46222     0.38911    -1.35408
C     6.0    -3.38624     1.89333     0.26397
C     6.0    -4.88012     1.57923    -0.02437
H     1.0    -3.07528     2.71545    -0.38191
N     7.0    -3.16497     2.27321     1.67695
H     1.0    -4.96892     1.12888    -1.01727
C     6.0    -5.78558     2.83728     0.02078
Cl    17.0    -5.46229     0.30608     1.09896
Br    35.0    -5.33980     4.04826    -1.47041
H     1.0    -5.58639     3.43355     0.91522
C     6.0    -7.28730     2.49744    -0.06895
H     1.0    -7.48418     1.85267    -0.92966
N     7.0    -8.21261     3.63984     0.22614
H     1.0    -7.64153     2.02268     0.84946
H     1.0    -8.14549     4.35802    -0.51305
H     1.0    -7.96681     4.07626     1.12952
H     1.0    -3.33297     1.53604     2.34480
C     6.0    -2.94127     3.50795     2.18211
O     8.0    -2.90531     3.65817     3.38495
C     6.0    -2.63175     4.65245     1.23748
H     1.0    -1.84182     4.37470     0.53606
H     1.0    -2.29245     5.52510     1.80054
H     1.0    -3.52171     4.93644     0.67563
H     1.0    -9.19000     3.30962     0.27577
 $END

